(set-info :smt-lib-version 2.6)
(set-logic QF_S)
(set-info :source |
Generated by: Murphy Berzish, Mitja Kulczynski, Federico Mora, Florin Manea, Joel Day, Dirk Nowotka, Vijay Ganesh, Zhengyang Lu
Generated on: 2020-10-01
Description: Translated from a collection of real-world regex queries, AutomataArk, collected by Loris D’Antoni and Fang Wang: https://github.com/lorisdanto/automatark
Application: Evaluate solvers on real-world regex queries
Target solver: Z3str3RE, CVC4, OSTRICH, Z3seq, Z3str3, Z3-Trau
Publications: Berzish, M., Kulczynski, M., Mora, F., Manea, F., Day, J. D., Nowotka, D., & Ganesh, V. (2021, July). An SMT solver for regular expressions and linear arithmetic over string length. In CAV 2021.
|)
(set-info :license "https://creativecommons.org/licenses/by/4.0/")
(set-info :category "industrial")
(set-info :status unsat)

(declare-const X String)
(assert (str.in_re X (str.to_re "onBetaHost:youRootReferer:\u{a}")))
(assert (str.in_re X (re.++ (re.opt (re.union (str.to_re "+") (str.to_re "-"))) (re.+ (re.range "0" "9")) (re.* (re.++ (str.to_re ",") ((_ re.loop 3 3) (re.range "0" "9")))) (re.opt (str.to_re ".")) (re.* (re.range "0" "9")) (re.opt (str.to_re "%")) (str.to_re "\u{a}"))))
(assert (not (str.in_re X (re.++ (str.to_re "XP") (re.+ (re.range "0" "9")) (str.to_re "Acme") (re.+ (re.union (str.to_re " ") (str.to_re "\u{9}") (str.to_re "\u{a}") (str.to_re "\u{c}") (str.to_re "\u{d}"))) (str.to_re "/cbn/node=Host:?search=versionContact\u{a}")))))
(assert (not (str.in_re X (re.++ (str.to_re "&lt;") (re.opt (str.to_re "/")) (re.* (re.++ (re.+ (re.union (str.to_re " ") (str.to_re "\u{9}") (str.to_re "\u{a}") (str.to_re "\u{c}") (str.to_re "\u{d}"))) (re.+ (re.comp (re.union (str.to_re " ") (str.to_re "\u{9}") (str.to_re "\u{a}") (str.to_re "\u{c}") (str.to_re "\u{d}")))) (re.opt (re.++ (re.* (re.union (str.to_re " ") (str.to_re "\u{9}") (str.to_re "\u{a}") (str.to_re "\u{c}") (str.to_re "\u{d}"))) (str.to_re "=") (re.* (re.union (str.to_re " ") (str.to_re "\u{9}") (str.to_re "\u{a}") (str.to_re "\u{c}") (str.to_re "\u{d}"))) (re.union ((_ re.loop 1 1024) (re.union (str.to_re "-") (str.to_re ".") (re.range "0" "9") (re.range "A" "Z") (re.range "a" "z") (str.to_re "_"))) (re.++ (str.to_re "&quot;") ((_ re.loop 0 1024) (re.union (str.to_re "&") (str.to_re "q") (str.to_re "u") (str.to_re "o") (str.to_re "t") (str.to_re ";"))) (str.to_re "&quot;")) (re.++ (str.to_re "'") ((_ re.loop 0 1024) (re.comp (str.to_re "'"))) (str.to_re "'"))))))) (re.* (re.union (str.to_re " ") (str.to_re "\u{9}") (str.to_re "\u{a}") (str.to_re "\u{c}") (str.to_re "\u{d}"))) (str.to_re "&gt;\u{a}") (re.union (re.range "a" "z") (re.range "A" "Z")) ((_ re.loop 0 71) (re.union (str.to_re "-") (re.range "A" "Z") (re.range "a" "z") (re.range "0" "9") (str.to_re ".")))))))
(check-sat)

(exit)
